nNurses = 132;
nHours = 37;
minHours = 8;
maxHours = 20;
maxConsec = 16;
maxPresence = 24;
demand = [25, 27, 26, 21, 20, 19, 21, 21, 23, 20, 21, 26, 23, 23, 21, 25, 27, 26, 25, 22, 23, 27, 24, 22, 20, 19, 20, 21, 18, 16, 14, 11, 11, 14, 14, 11, 16];
